
  27    0


   0  17 2 3 4 5 6 7 8 9 10 13 14 15 16 23 24 25 26 
   4   3 22 19 12 
   8   3 19 18 17 
   4   3 21 19 17 
   1   2 20 11 
   7   2 20 12 
   4   2 20 17 
   2   2 19 18 
   6   2 18 17 
   8   1 11 
   5   1 18 
   9   1 17 
   3   1 20 
   8   1 19 
  10   1 17 
   5   1 17 
   7   1 27
   6   1 27
   8   1 27
   5   1 27
   9   1 27
   6   1 27
   2   1 27
   7   1 27
   6   1 27
   3   1 27
   0   0 
